(declare-datatypes ((Unit 0)) (((unit))))
(declare-datatypes ((Bits 0)) (((Bits (len (_ BitVec 8)) (contents (_ BitVec 64))))))
(declare-datatypes ((Zfloat_bits 0)) (((Zfloat_bits (Zfloat_bits_zexp Bits) (Zfloat_bits_zmantissa Bits) (Zfloat_bits_zsign (_ BitVec 1))))))
(declare-datatypes ((Zexception 0)) (((z__dummy_exnz3 (unz__dummy_exnz3 Unit)))))
(declare-const zz4639/1 (_ BitVec 8))
(declare-const zz4640/1 (_ BitVec 8))
(declare-const zz4641/1 (_ BitVec 8))
(declare-const zz4642/1 (_ BitVec 8))
(declare-const zz4643/1 (_ BitVec 8))
(define-const zz4644/2 (_ BitVec 8) zz4639/1)
(define-const zz4646/2 (_ BitVec 8) zz4640/1)
(define-const zz4648/2 (_ BitVec 8) zz4641/1)
(define-const zz4650/2 (_ BitVec 8) zz4642/1)
(define-const zz4652/2 (_ BitVec 8) zz4643/1)
(define-const zz4670/2 Bool (bvslt (concat #x00000000000000 (bvsub zz4652/2 zz4644/2)) (concat #x00000000000000 zz4646/2)))
(define-const zz4674/2 Bool (bvslt (concat #x00000000000000 (bvsub zz4652/2 zz4648/2)) (concat #x00000000000000 zz4650/2)))
(define-const zz4679/2 (_ BitVec 8) (bvsub (bvadd zz4644/2 zz4646/2) zz4648/2))
(define-const zz4681/2 (_ BitVec 8) (bvsub (bvadd zz4648/2 zz4650/2) zz4648/2))
(define-const zz4683/2 (_ BitVec 8) (bvsub zz4644/2 zz4648/2))
(define-const zz4678/2 Bool (and (bvsle (concat #x00000000000000 zz4683/2) (concat #x00000000000000 zz4681/2)) (bvsle (concat #x00000000000000 zz4679/2) (concat #x00000000000000 zz4681/2)) (bvsle (concat #x00000000000000 zz4683/2) (concat #x00000000000000 zz4679/2))))
(assert (or (and zz4678/2 zz4670/2 (not zz4674/2)) (and zz4670/2 zz4678/2 (not zz4674/2))))
(check-sat)
